SCIP Status        : solving was interrupted [time limit reached]
Total Time         :    3600.01
  solving          :    3600.01
  presolving       :       0.00 (included in solving)
  reading          :       0.00
  copying          :       0.17 (86 #copies) (minimal 0.00, maximal 0.00, average 0.00)
Original Problem   :
  Problem name     : ex7_2_1
  Variables        : 8 (0 binary, 0 integer, 0 implicit integer, 8 continuous)
  Constraints      : 15 initial, 15 maximal
  Objective        : minimize, 2 non-zeros (abs.min = 1, abs.max = 10)
Presolved Problem  :
  Problem name     : t_ex7_2_1
  Variables        : 41 (0 binary, 0 integer, 0 implicit integer, 41 continuous)
  Constraints      : 13 initial, 13 maximal
  Objective        : minimize, 2 non-zeros (abs.min = 1, abs.max = 10)
  Nonzeros         : 40 constraint, 0 clique table
Presolvers         :   ExecTime  SetupTime  Calls  FixedVars   AggrVars   ChgTypes  ChgBounds   AddHoles    DelCons    AddCons   ChgSides   ChgCoefs
  boundshift       :       0.00       0.00      0          0          0          0          0          0          0          0          0          0
  convertinttobin  :       0.00       0.00      0          0          0          0          0          0          0          0          0          0
  domcol           :       0.00       0.00      1          0          0          0          0          0          0          0          0          0
  dualagg          :       0.00       0.00      0          0          0          0          0          0          0          0          0          0
  dualcomp         :       0.00       0.00      1          0          0          0          0          0          0          0          0          0
  dualinfer        :       0.00       0.00      0          0          0          0          0          0          0          0          0          0
  dualsparsify     :       0.00       0.00      1          0          0          0          0          0          0          0          0          0
  gateextraction   :       0.00       0.00      0          0          0          0          0          0          0          0          0          0
  implics          :       0.00       0.00      1          0          0          0          0          0          0          0          0          0
  inttobinary      :       0.00       0.00      0          0          0          0          0          0          0          0          0          0
  qpkktref         :       0.00       0.00      0          0          0          0          0          0          0          0          0          0
  redvub           :       0.00       0.00      0          0          0          0          0          0          0          0          0          0
  sparsify         :       0.00       0.00      1          0          0          0          0          0          0          0          0          0
  stuffing         :       0.00       0.00      0          0          0          0          0          0          0          0          0          0
  trivial          :       0.00       0.00      2          0          0          0          0          0          0          0          0          0
  tworowbnd        :       0.00       0.00      0          0          0          0          0          0          0          0          0          0
  dualfix          :       0.00       0.00      2          0          0          0          0          0          0          0          0          0
  genvbounds       :       0.00       0.00      0          0          0          0          0          0          0          0          0          0
  probing          :       0.00       0.00      0          0          0          0          0          0          0          0          0          0
  pseudoobj        :       0.00       0.00      0          0          0          0          0          0          0          0          0          0
  symmetry         :       0.00       0.00      1          0          0          0          0          0          0          0          0          0
  vbounds          :       0.00       0.00      0          0          0          0          0          0          0          0          0          0
  linear           :       0.00       0.00      3          0          0          0          2          0          0          0          0          0
  nonlinear        :       0.00       0.00      4          0          0          0          9          0          2          0          0          0
  benders          :       0.00       0.00      0          0          0          0          0          0          0          0          0          0
  components       :       0.00       0.00      1          0          0          0          0          0          0          0          0          0
  root node        :          -          -      -          0          -          -         59          -          -          -          -          -
Constraints        :     Number  MaxNumber  #Separate #Propagate    #EnfoLP    #EnfoRelax  #EnfoPS    #Check   #ResProp    Cutoffs    DomReds       Cuts    Applied      Conss   Children
  benderslp        :          0          0          0          0   10297587          0     376353     205995          0          0          0          0          0          0          0
  integral         :          0          0          0          0   10297587          0          0     205995          0          0          0          0          0          0          0
  linear           :          2+         3         14    4690498     202961          0     358352     205991          0         23     183429          0          0          0          0
  nonlinear        :         11         11   11460126   10978664   10297587          0     376353     205990          0    2626126   39100577    2618866    2441593          0    5090502
  benders          :          0          0          0          0     789878          0     376353        384          0          0          0          0          0          0          0
  countsols        :          0          0          0          0     789878          0     376353        384          0          0          0          0          0          0          0
  components       :          0          0          0          0          0          0          0          0          0          0          0          0          0          0          0
Constraint Timings :  TotalTime  SetupTime   Separate  Propagate     EnfoLP     EnfoPS     EnfoRelax   Check    ResProp    SB-Prop
  benderslp        :       1.20       0.00       0.00       0.00       1.13       0.07       0.00       0.01       0.00       0.00
  integral         :       1.04       0.00       0.00       0.00       1.03       0.00       0.00       0.01       0.00       0.00
  linear           :       1.75       0.00       0.00       1.54       0.06       0.13       0.00       0.02       0.00       0.00
  nonlinear        :    1457.51       0.00     101.64     143.12    1210.00       2.19       0.00       0.55       0.00       0.00
  benders          :       0.12       0.00       0.00       0.00       0.09       0.03       0.00       0.00       0.00       0.00
  countsols        :       0.11       0.00       0.00       0.00       0.07       0.04       0.00       0.00       0.00       0.00
  components       :       0.52       0.00       0.00       0.52       0.00       0.00       0.00       0.00       0.00       0.00
Propagators        : #Propagate   #ResProp    Cutoffs    DomReds
  dualfix          :          4          0          0          0
  genvbounds       :    3340550          0         41      19622
  nlobbt           :          0          0          0          0
  obbt             :          5          0          0          7
  probing          :          0          0          0          0
  pseudoobj        :   21276248          0          0     224248
  redcost          :          0          0          0          0
  rootredcost      :         13          0          0          4
  symmetry         :          0          0          0          0
  vbounds          :          0          0          0          0
Propagator Timings :  TotalTime  SetupTime   Presolve  Propagate    ResProp    SB-Prop
  dualfix          :       0.00       0.00       0.00       0.00       0.00       0.00
  genvbounds       :       5.84       0.00       0.00       5.84       0.00       0.00
  nlobbt           :       0.00       0.00       0.00       0.00       0.00       0.00
  obbt             :       0.01       0.00       0.00       0.01       0.00       0.00
  probing          :       0.00       0.00       0.00       0.00       0.00       0.00
  pseudoobj        :       6.40       0.00       0.00       6.40       0.00       0.00
  redcost          :       2.78       0.00       0.00       2.78       0.00       0.00
  rootredcost      :       1.94       0.00       0.00       1.94       0.00       0.00
  symmetry         :       0.76       0.00       0.00       0.76       0.00       0.00
  vbounds          :       2.04       0.00       0.00       2.04       0.00       0.00
Conflict Analysis  :       Time      Calls    Success    DomReds  Conflicts   Literals    Reconvs ReconvLits   Dualrays   Nonzeros   LP Iters   (pool size: [--,--])
  propagation      :       0.00          0          0          -          0        0.0          0        0.0          -          -          -
  infeasible LP    :       1.48     300047          2          -          0        0.0          0        0.0          1        1.0          0
  bound exceed. LP :       0.97     335394          0          -          0        0.0          0        0.0          0        0.0          0
  strong branching :       0.00          0          0          -          0        0.0          0        0.0          -          -          0
  pseudo solution  :       0.00          0          0          -          0        0.0          0        0.0          -          -          -
  applied globally :       0.00          -          -          0          0        0.0          -          -          0          -          -
  applied locally  :          -          -          -          1          0        0.0          -          -          1          -          -
Separators         :   ExecTime  SetupTime      Calls  RootCalls    Cutoffs    DomReds  FoundCuts ViaPoolAdd  DirectAdd    Applied ViaPoolApp  DirectApp      Conss
  cut pool         :       0.00          -          0          0          -          -          0          0          -          -          -          -          -    (maximal pool size:          0)
  aggregation      :       0.09       0.00          0          0          0          0          0          0          0          0          0          0          0
  > cmir           :          -          -          -          -          -          -          -          0          0          0          0          0          -
  > flowcover      :          -          -          -          -          -          -          -          0          0          0          0          0          -
  > knapsackcover  :          -          -          -          -          -          -          -          0          0          0          0          0          -
  cgmip            :       0.00       0.00          0          0          0          0          0          0          0          0          0          0          0
  clique           :       0.00       0.00          0          0          0          0          0          0          0          0          0          0          0
  closecuts        :       0.00       0.00          0          0          0          0          0          0          0          0          0          0          0
  convexproj       :       0.00       0.00          0          0          0          0          0          0          0          0          0          0          0
  disjunctive      :       0.00       0.00          0          0          0          0          0          0          0          0          0          0          0
  eccuts           :       0.00       0.00          0          0          0          0          0          0          0          0          0          0          0
  gauge            :       0.00       0.00          0          0          0          0          0          0          0          0          0          0          0
  gomory           :       0.17       0.00          0          0          0          0          0          0          0          0          0          0          0
  > gomorymi       :          -          -          -          -          -          -          -          0          0          0          0          0          -
  > strongcg       :          -          -          -          -          -          -          -          0          0          0          0          0          -
  impliedbounds    :       0.05       0.00          0          0          0          0          0          0          0          0          0          0          0
  interminor       :       0.00       0.00          0          0          0          0          0          0          0          0          0          0          0
  intobj           :       0.00       0.00          0          0          0          0          0          0          0          0          0          0          0
  mcf              :       0.00       0.00          0          0          0          0          0          0          0          0          0          0          0
  minor            :       0.10       0.00          0          0          0          0          0          0          0          0          0          0          0
  mixing           :       0.08       0.00     460170         15          0          0          0          0          0          0          0          0          0
  oddcycle         :       0.00       0.00          0          0          0          0          0          0          0          0          0          0          0
  rapidlearning    :       0.01       0.00          0          0          0          0          0          0          0          0          0          0          0
  rlt              :       0.00       0.00         10         10          0          0          0          0          0          0          0          0          0
  zerohalf         :       0.09       0.00          0          0          0          0          0          0          0          0          0          0          0
Cutselectors       :   ExecTime  SetupTime      Calls  RootCalls   Selected     Forced   Filtered  RootSelec   RootForc   RootFilt 
  hybrid           :       0.98       0.00    1312745         13    1431104          0      17558         26          0          2
Pricers            :   ExecTime  SetupTime      Calls       Vars
  problem variables:       0.00          -          0          0
Branching Rules    :   ExecTime  SetupTime   BranchLP  BranchExt   BranchPS    Cutoffs    DomReds       Cuts      Conss   Children
  allfullstrong    :       0.00       0.00          0          0          0          0          0          0          0          0
  cloud            :       0.00       0.00          0          0          0          0          0          0          0          0
  distribution     :       0.00       0.00          0          0          0          0          0          0          0          0
  fullstrong       :       0.00       0.00          0          0          0          0          0          0          0          0
  inference        :       0.00       0.00          0          0          0          0          0          0          0          0
  leastinf         :       0.00       0.00          0          0          0          0          0          0          0          0
  lookahead        :       0.00       0.00          0          0          0          0          0          0          0          0
  mostinf          :       0.00       0.00          0          0          0          0          0          0          0          0
  multaggr         :       0.00       0.00          0          0          0          0          0          0          0          0
  nodereopt        :       0.00       0.00          0          0          0          0          0          0          0          0
  pscost           :       4.31       0.00          0    1166231          0          0          0          0          0    2332462
  random           :       0.00       0.00          0          0          0          0          0          0          0          0
  relpscost        :       0.00       0.00          0          0          0          0          0          0          0          0
  vanillafullstrong:       0.00       0.00          0          0          0          0          0          0          0          0
Primal Heuristics  :   ExecTime  SetupTime      Calls      Found       Best
  LP solutions     :       0.00          -          -          0          0
  relax solutions  :       0.00          -          -          0          0
  pseudo solutions :       0.00          -          -          0          0
  strong branching :       0.00          -          -          0          0
  actconsdiving    :       0.00       0.00          0          0          0
  adaptivediving   :       0.83       0.00      27313          0          0
  alns             :       0.62       0.00         86          0          0
  bound            :       0.00       0.00          0          0          0
  clique           :       0.00       0.00          0          0          0
  coefdiving       :       0.00       0.00          0          0          0
  completesol      :       0.00       0.00          0          0          0
  conflictdiving   :       0.33       0.00          0          0          0
  crossover        :       0.35       0.00          0          0          0
  dins             :       0.00       0.00          0          0          0
  distributiondivin:       0.07       0.00          0          0          0
  dps              :       0.00       0.00          0          0          0
  dualval          :       0.00       0.00          0          0          0
  farkasdiving     :       0.09       0.00          0          0          0
  feaspump         :       0.12       0.00          0          0          0
  fixandinfer      :       0.00       0.00          0          0          0
  fracdiving       :       0.56       0.00      37734          0          0
  gins             :       0.08       0.00          0          0          0
  guideddiving     :       0.10       0.00          0          0          0
  indicator        :       0.97       0.00          0          0          0
  indicatordiving  :       0.00       0.00          0          0          0
  intdiving        :       0.00       0.00          0          0          0
  intshifting      :       0.06       0.00          0          0          0
  linesearchdiving :       0.52       0.00      37755          0          0
  localbranching   :       0.00       0.00          0          0          0
  locks            :       0.00       0.00          0          0          0
  lpface           :       0.81       0.00          0          0          0
  mpec             :       0.08       0.00          0          0          0
  multistart       :       0.06       0.00          1          1          1
  mutation         :       0.00       0.00          0          0          0
  nlpdiving        :       0.08       0.00          0          0          0
  objpscostdiving  :       0.12       0.00          0          0          0
  octane           :       0.00       0.00          0          0          0
  ofins            :       0.50       0.00          0          0          0
  oneopt           :       0.89       0.00          0          0          0
  padm             :       0.00       0.00          0          0          0
  proximity        :       0.00       0.00          0          0          0
  pscostdiving     :       0.07       0.00          0          0          0
  randrounding     :       0.08       0.00          0          0          0
  rens             :       0.86       0.00          0          0          0
  reoptsols        :       0.00       0.00          0          0          0
  repair           :       0.00       0.00          0          0          0
  rins             :       0.10       0.00          0          0          0
  rootsoldiving    :       0.13       0.00          0          0          0
  rounding         :       1.46       0.00          0          0          0
  shiftandpropagate:       0.00       0.00          0          0          0
  shifting         :       0.14       0.00          0          0          0
  simplerounding   :       1.16       0.00          0          0          0
  subnlp           :      61.02       0.00       7376        382         14
  trivial          :       0.00       0.00          2          0          0
  trivialnegation  :       0.00       0.00          0          0          0
  trustregion      :       0.00       0.00          0          0          0
  trysol           :       1.07       0.00          0          0          0
  twoopt           :       0.00       0.00          0          0          0
  undercover       :       0.00       0.00          1          0          0
  vbounds          :       0.00       0.00          0          0          0
  veclendiving     :       0.07       0.00          0          0          0
  zeroobj          :       0.00       0.00          0          0          0
  zirounding       :       0.77       0.00          0          0          0
  other solutions  :          -          -          -          0          -
Expressions        :   #IntEval  IntEvalTi   #RevProp  RevPropTi    DomReds    Cutoffs  #Estimate  EstimTime  Branching  #Simplify SimplifyTi Simplified
  pow              :   42218593       6.46    1048904       0.38    1048467          0   29400769       4.00    3959821         85       0.00          0
  prod             :   47428708       8.48    1015607       0.44      14065     495405    8708434     527.87    7282028         97       0.00         61
  sum              :   28121142       6.75    7125533       3.85    2078586         67        831       0.00          0         99       0.00         17
  val              :          0       0.00          0       0.00          0          0          0       0.00          0          0       0.00          0
  var              :   37683239       1.75          0       0.00          0          0          0       0.00          0        176       0.00          0
Nlhdlrs            :    Detects  DetectAll DetectTime   #IntEval  IntEvalTi   #RevProp  RevPropTi    DomReds    Cutoffs   #Enforce   EnfoTime       Cuts  Branching
  soc              :          0          0       0.00          0       0.00          0       0.00          0          0          0       0.00          0          0
  convex           :          0          0       0.00          0       0.00          0       0.00          0          0          0       0.00          0          0
  concave          :          1          1       0.00          0       0.00          0       0.00          0          0          1       0.00          0          0
  signomial        :         12         12       0.00          0       0.00          0       0.00          0          0    7552385     596.44      12361          0
  quotient         :          8          8       0.00          0       0.00          0       0.00          0          0      34511       0.04      29316          0
  quadratic        :          6         32       0.00   19920866      16.15   10700408      16.92    1573363         45          0       0.00          0          0
  default          :         41        157       0.00  117768308      27.68    9190068       9.31    3141118     495663   38110029     573.81    2577207          0
  bilinear         :          9          9       0.00   13458218       0.76     457780       0.05          0          0     517895       0.16          0          0
  perspective      :          0          0       0.00          0       0.00          0       0.00          0          0          0       0.00          0          0
LP                 :       Time      Calls Iterations  Iter/call   Iter/sec  Time-0-It Calls-0-It    ItLimit
  primal LP        :      63.04     664508          0       0.00       0.00      63.00     664508
  dual LP          :    1161.14   13570364   15240491       3.33   13125.45     566.52    8987123
  lex dual LP      :       0.00          0          0       0.00          -
  barrier LP       :       0.00          0          0       0.00          -       0.00          0
  resolve instable :       0.00         18        292      16.22          -
  diving/probing LP:       0.01         26        425      16.35          -
  strong branching :       0.00          0          0       0.00          -          -          -          0
    (at root node) :          -          0          0       0.00          -
  conflict analysis:       0.00          0          0       0.00          -
NLP relaxation     :
  solve time       :       0.00 (0 calls)
  convexity        :  nonconvex (2 linear rows, 1 convex ineq., 10 nonconvex ineq., 0 nonlinear eq. or two-sided ineq.)
NLP Solvers        :  #Problems  ProblemTi    #Solves  SolveTime      #Iter  Time/Iter      #Okay #TimeLimit #IterLimit #LObjLimit #Interrupt  #NumError #EvalError  #OutOfMem #LicenseEr #OtherTerm   #GlobOpt    #LocOpt  #Feasible #LocInfeas #GlobInfea #Unbounded   #Unknown
  ipopt            :          2       0.00       7379      58.30     108734       0.00       7379          0          0          0          0          0          0          0          0          0          0       7379          0          0          0          0          0
B&B Tree           :
  number of runs   :          1
  nodes            :    6981381 (3711482 internal, 3269899 leaves)
  feasible leaves  :          0
  infeas. leaves   :    2926227
  objective leaves :     343671
  nodes (total)    :    6981381 (3711482 internal, 3269899 leaves)
  nodes left       :     441585
  max depth        :         86
  max depth (total):         86
  backtracks       :    2041342 (29.2%)
  early backtracks :          0 (0.0%)
  nodes exc. ref.  :          0 (0.0%)
  delayed cutoffs  :          0
  repropagations   :          5 (0 domain reductions, 0 cutoffs)
  avg switch length:      16.52
  switching time   :     234.00
Root Node          :
  First LP value   : +9.61337297343403e+02
  First LP Iters   :         16 (28880.87 Iter/sec)
  First LP Time    :       0.00
  Final Dual Bound : +1.10005935683641e+03
  Final Root Iters :         82
  Root LP Estimate : +1.10062367321851e+03
Solution           :
  Solutions found  :        383 (15 improvements)
  First Solution   : +1.22722570101426e+03   (in run 1, after 1 nodes, 0.02 seconds, depth 0, found by <subnlp>)
  Gap First Sol.   :      27.66 %
  Gap Last Sol.    :       2.57 %
  Primal Bound     : +1.22722570044402e+03   (in run 1, after 6455859 nodes, 3325.45 seconds, depth 30, found by <fracdiving>)
  Dual Bound       : +1.19716374804936e+03
  Gap              :       2.51 %
Integrals          :      Total       Avg%
  primal-dual      :   13117.33       3.64
  primal-ref       :          -          - (not evaluated)
  dual-ref         :          -          - (not evaluated)
